
Gurobi 9.5.2 (win64, gurobi_cl) logging started Sat Nov 25 11:11:05 2023

Set parameter Username
Set parameter LogFile to value "gurobi.log"
Academic license - for non-commercial use only - expires 2024-11-24
Using license file C:\Users\aleja\gurobi.lic

Gurobi 9.5.2 (win64, gurobi_cl) logging started Sat Nov 25 11:11:21 2023

Set parameter Username
Set parameter LogFile to value "gurobi.log"
Academic license - for non-commercial use only - expires 2024-11-24
Using license file C:\Users\aleja\gurobi.lic
